NAME: line_40_9
TYPE: TSP
COMMENT: line_40_9
DIMENSION: 40
EDGE_WEIGHT_TYPE: EUC_2D
NODE_COORD_SECTION
1 0.0 69.0
2 0.0 273.0
3 0.0 91.0
4 0.0 90.0
5 0.0 219.0
6 0.0 56.0
7 0.0 300.0
8 0.0 275.0
9 0.0 23.0
10 0.0 37.0
11 0.0 103.0
12 0.0 259.0
13 0.0 43.0
14 0.0 106.0
15 0.0 93.0
16 0.0 117.0
17 0.0 145.0
18 0.0 364.0
19 0.0 31.0
20 0.0 209.0
21 0.0 279.0
22 0.0 311.0
23 0.0 285.0
24 0.0 71.0
25 0.0 356.0
26 0.0 344.0
27 0.0 182.0
28 0.0 122.0
29 0.0 180.0
30 0.0 278.0
31 0.0 70.0
32 0.0 133.0
33 0.0 116.0
34 0.0 228.0
35 0.0 163.0
36 0.0 268.0
37 0.0 238.0
38 0.0 185.0
39 0.0 170.0
40 0.0 277.0
